
Gurobi 9.5.0 (mac64[x86]) logging started Wed 20 Jul 20:25:23 2022

Set parameter LogFile to value "/Users/nikitabelyak/Dropbox (Aalto)/TSEP/Nordic_case_study/2022 data/optimisation_results/20_Jul_2022_20_25_23.log"
Set parameter Threads to value 6

Gurobi 9.5.0 (mac64[x86]) logging started Wed 20 Jul 20:25:24 2022

Set parameter LogFile to value "/Users/nikitabelyak/Dropbox (Aalto)/TSEP/Nordic_case_study/2022 data/optimisation_results/20_Jul_2022_20_25_23.log"

Gurobi 9.5.0 (mac64[x86]) logging started Wed 20 Jul 20:25:24 2022

Set parameter LogFile to value "/Users/nikitabelyak/Dropbox (Aalto)/TSEP/Nordic_case_study/2022 data/optimisation_results/20_Jul_2022_20_25_23.log"
Gurobi Optimizer version 9.5.0 build v9.5.0rc5 (mac64[x86])
Thread count: 6 physical cores, 12 logical processors, using up to 6 threads
Optimize a model with 32981 rows, 25625 columns and 98385 nonzeros
Model fingerprint: 0x734f3076
Model has 70 quadratic objective terms
Variable types: 14850 continuous, 10775 integer (10775 binary)
Coefficient statistics:
  Matrix range     [1e-04, 3e+12]
  Objective range  [1e+01, 1e+04]
  QObjective range [1e-04, 7e-02]
  Bounds range     [0e+00, 0e+00]
  RHS range        [2e-02, 1e+11]
Warning: Model contains large matrix coefficient range
Warning: Model contains large rhs
         Consider reformulating model or setting NumericFocus parameter
         to avoid numerical issues.

User MIP start did not produce a new incumbent solution
User MIP start violates constraint R4369 by 6705.600000000

Presolve removed 8742 rows and 6968 columns
Presolve time: 0.51s
Presolved: 24239 rows, 18657 columns, 78243 nonzeros
Presolved model has 70 quadratic objective terms
Variable types: 10444 continuous, 8213 integer (8213 binary)
Warning: 1 variables dropped from basis

Root relaxation: numerical trouble, 26805 iterations, 2.19 seconds (2.80 work units)

    Nodes    |    Current Node    |     Objective Bounds      |     Work
 Expl Unexpl |  Obj  Depth IntInf | Incumbent    BestBd   Gap | It/Node Time

     0     0  postponed    0               - 6.9571e+09      -     -    3s
     0     0  postponed    0               - 6.9571e+09      -     -    4s

Explored 1 nodes (53610 simplex iterations) in 6.73 seconds (8.88 work units)
Thread count was 6 (of 12 available processors)

Solution count 0
No other solutions better than -1e+100

Model is infeasible or unbounded
Best objective -, best bound -, gap -

User-callback calls 1054, time in user-callback 0.00 sec
